SPARKNaCl/why3-z3/sparknacl-sign.adb_1110_9_length_check2_1.smt2
;; produced by z3_gnatprove.drv ;;
(set-info :smt-lib-version 2.5)
(set-info :source |VC generated by SPARK 2014|)
(set-info :category industrial)
(set-info :status unknown)
;;; generated by SMT-LIB2 driver
;;; SMT-LIB2 driver: bit-vectors, common part
;;; SMT-LIB2: integer arithmetic
(declare-datatypes ()
  ((int__ref (int__refqtmk (int__content Int)))))

(declare-datatypes ()
  ((bool__ref (bool__refqtmk (bool__content Bool)))))

;; "length"
(define-fun length ((x Int) (y Int)) Int
  (ite (<= x y) (+ (- y x) 1) 0))

(declare-sort byte 0)

;; "to_rep"
(declare-fun to_rep (byte) (_ BitVec 8))

;; "of_rep"
(declare-fun of_rep ((_ BitVec 8)) byte)

;; "inversion_axiom"
(assert
  (forall ((x byte)) (! (= (of_rep (to_rep x)) x) :pattern ((to_rep x)) )))

;; "range_axiom"
(assert true)

;; "coerce_axiom"
(assert
  (forall ((x (_ BitVec 8)))
    (! (= (to_rep (of_rep x)) x) :pattern ((to_rep (of_rep x))) )))

(declare-sort map1 0)

(declare-datatypes ()
  ((map__ref (map__refqtmk (map__content map1)))))

;; "has_bounds"
(declare-fun has_bounds (map1
  Int
  Int) Bool)

(declare-datatypes ()
  ((us_split_fields
   (us_split_fieldsqtmk (rec__ada___sparknacl__sign__signing_pk__f map1)))))

(declare-datatypes ()
  ((us_rep (us_repqtmk (us_split_fields1 us_split_fields)))))

;; "dynamic_invariant"
(define-fun dynamic_invariant ((temp___expr_531 us_rep) (temp___is_init_527 Bool) (temp___skip_constant_528 Bool) (temp___do_toplevel_529 Bool) (temp___do_typ_inv_530 Bool)) Bool
  (has_bounds
    (rec__ada___sparknacl__sign__signing_pk__f
      (us_split_fields1 temp___expr_531))
    0
    31))

;; "serialize"
(declare-fun serialize (us_rep) map1)

;; "serialize__function_guard"
(declare-fun serialize__function_guard (map1
  us_rep) Bool)

(declare-sort tinteger_32B 0)

;; "tinteger_32B'int"
(declare-fun tinteger_32Bqtint (tinteger_32B) Int)

;; "tinteger_32B'axiom"
(assert
  (forall ((i tinteger_32B))
    (and
      (<= (- 2147483648) (tinteger_32Bqtint i))
      (<= (tinteger_32Bqtint i) 2147483647))))

;; "in_range"
(define-fun in_range ((x Int)) Bool
  (and (<= (- 2147483648) x) (<= x 2147483647)))

;; "to_rep"
(define-fun to_rep1 ((x tinteger_32B)) Int
  (tinteger_32Bqtint x))

;; "of_rep"
(declare-fun of_rep1 (Int) tinteger_32B)

;; "inversion_axiom"
(assert
  (forall ((x tinteger_32B))
    (! (= (of_rep1 (to_rep1 x)) x) :pattern ((to_rep1 x)) )))

;; "range_axiom"
(assert
  (forall ((x tinteger_32B))
    (! (in_range (to_rep1 x)) :pattern ((to_rep1 x)) )))

;; "coerce_axiom"
(assert
  (forall ((x Int))
    (! (=> (in_range x) (= (to_rep1 (of_rep1 x)) x)) :pattern ((to_rep1
                                                                 (of_rep1 x))) )))

;; "in_range"
(define-fun in_range1 ((x Int)) Bool
  (and (<= 0 x) (<= x 2147483647)))

(declare-datatypes ()
  ((t (tqtmk (rec__first tinteger_32B)(rec__last tinteger_32B)))))

;; "mk"
(declare-fun mk (Int
  Int) t)

;; "mk_def"
(assert
  (forall ((f Int) (l Int))
    (! (=>
         (in_range f)
         (=>
           (in_range l)
           (and
             (= (to_rep1 (rec__first (mk f l))) f)
             (= (to_rep1 (rec__last (mk f l))) l)))) :pattern ((mk f l)) )))

;; "dynamic_property"
(define-fun dynamic_property ((range_first Int) (range_last Int) (low Int) (high Int)) Bool
  (and
    (in_range low)
    (and
      (in_range high)
      (=> (<= low high) (and (in_range1 low) (in_range1 high))))))

(declare-datatypes ()
  ((us_t (us_tqtmk (elts map1)(rt t)))))

;; "of_array"
(define-fun of_array ((a map1) (f Int) (l Int)) us_t
  (us_tqtmk a (mk f l)))

;; "first"
(define-fun first ((a us_t)) Int
  (to_rep1 (rec__first (rt a))))

;; "last"
(define-fun last ((a us_t)) Int
  (to_rep1 (rec__last (rt a))))

;; "length"
(define-fun length1 ((a us_t)) Int
  (ite (<= (first a) (last a)) (+ (- (last a) (first a)) 1) 0))

;; "well_formed"
(define-fun well_formed ((a us_t)) Bool
  (has_bounds
    (elts a)
    (to_rep1 (rec__first (rt a)))
    (to_rep1 (rec__last (rt a)))))

(declare-const m__first tinteger_32B)

(declare-const m__last tinteger_32B)

(declare-const sm us_t)

(declare-const pk us_rep)

(declare-sort gf16_normal_limb 0)

;; "to_rep"
(declare-fun to_rep2 (gf16_normal_limb) (_ BitVec 16))

;; "of_rep"
(declare-fun of_rep2 ((_ BitVec 16)) gf16_normal_limb)

;; "inversion_axiom"
(assert
  (forall ((x gf16_normal_limb))
    (! (= (of_rep2 (to_rep2 x)) x) :pattern ((to_rep2 x)) )))

;; "range_axiom"
(assert true)

;; "coerce_axiom"
(assert
  (forall ((x (_ BitVec 16)))
    (! (= (to_rep2 (of_rep2 x)) x) :pattern ((to_rep2 (of_rep2 x))) )))

(declare-sort map2 0)

;; "has_bounds"
(declare-fun has_bounds1 (map2
  Int
  Int) Bool)

(declare-sort map3 0)

(declare-datatypes ()
  ((map__ref1 (map__refqtmk1 (map__content1 map3)))))

;; "has_bounds"
(declare-fun has_bounds2 (map3
  Int
  Int) Bool)

;; "get"
(declare-fun get (map3
  Int) map2)

;; "dynamic_invariant"
(define-fun dynamic_invariant1 ((temp___expr_683 map3) (temp___is_init_679 Bool) (temp___skip_constant_680 Bool) (temp___do_toplevel_681 Bool) (temp___do_typ_inv_682 Bool)) Bool
  (and
    (has_bounds2 temp___expr_683 0 3)
    (forall ((temp___684 Int))
      (=>
        (and (<= 0 temp___684) (<= temp___684 3))
        (has_bounds1 (get temp___expr_683 temp___684) 0 15)))))

;; "dynamic_invariant"
(define-fun dynamic_invariant2 ((temp___expr_486 us_t) (temp___is_init_482 Bool) (temp___skip_constant_483 Bool) (temp___do_toplevel_484 Bool) (temp___do_typ_inv_485 Bool)) Bool
  (and
    (=>
      (not (= temp___skip_constant_483 true))
      (dynamic_property
        0
        2147483647
        (first temp___expr_486)
        (last temp___expr_486)))
    (well_formed temp___expr_486)))

;; "in_range"
(define-fun in_range2 ((x Int)) Bool
  (and (<= (- 2147483648) x) (<= x 2147483647)))

(declare-const m map1)

(declare-const status Bool)

(declare-const mlen Int)

(declare-const t1 map1)

(declare-const p map3)

(declare-const q map3)

(declare-const ln Int)

;; "ln'unused"
(define-fun lnqtunused () int__ref
  (int__refqtmk ln))

;; "q'unused"
(define-fun qqtunused () map__ref1
  (map__refqtmk1 q))

;; "p'unused"
(define-fun pqtunused () map__ref1
  (map__refqtmk1 p))

;; "t'unused"
(define-fun tqtunused () map__ref
  (map__refqtmk t1))

;; "m'unused"
(define-fun mqtunused () map__ref
  (map__refqtmk m))

;; "Assume"
(assert
  (and
    (dynamic_property 0 2147483647 (to_rep1 m__first) (to_rep1 m__last))
    (well_formed (of_array m (to_rep1 m__first) (to_rep1 m__last)))))

;; "Assume"
(assert (in_range2 mlen))

;; "Assume"
(assert (dynamic_invariant2 sm true false true true))

;; "Assume"
(assert (dynamic_invariant pk true false true true))

;; "Assume"
(assert
  (and
    (and
      (and
        (and (= (to_rep1 m__first) 0) (= (first sm) 0))
        (= (length1 sm) (length (to_rep1 m__first) (to_rep1 m__last))))
      (= (last sm) (to_rep1 m__last)))
    (<= 64 (length1 sm))))

;; "Assume"
(assert true)

;; "Assume"
(assert (has_bounds t1 0 31))

;; "Assume"
(assert true)

;; "Assume"
(assert (dynamic_invariant1 p false false true true))

;; "Assume"
(assert true)

;; "Assume"
(assert (dynamic_invariant1 q false false true true))

;; "Assume"
(assert true)

;; "Assume"
(assert (in_range2 ln))

;; "o"
(define-fun o () Int
  (length1 sm))

;; "length'result'unused"
(define-fun lengthqtresultqtunused () Int
  o)

;; "o"
(define-fun o1 () Bool
  (ite (< o 64) true false))

;; "infix <'result'unused"
(define-fun infix_lsqtresultqtunused () Bool
  o1)

(declare-const spark__branch Bool)

;; "spark__branch'unused"
(define-fun spark__branchqtunused () bool__ref
  (bool__refqtmk spark__branch))

;; "H"
(assert (= spark__branch o1))

;; "bool__content'result'unused"
(define-fun bool__contentqtresultqtunused () Bool
  spark__branch)

;; "H"
(assert (not (= spark__branch true)))

;; "map__content'result'unused"
(define-fun map__contentqtresultqtunused () map3
  q)

;; "bool__content'result'unused"
(define-fun bool__contentqtresultqtunused1 () Bool
  status)

;; "o"
(define-fun o2 () us_rep
  pk)

;; "o"
(define-fun o3 () map1
  (serialize o2))

;; "H"
(assert (serialize__function_guard o3 o2))

;; "H"
(assert (has_bounds o3 0 31))

;; "serialize'result'unused"
(define-fun serializeqtresultqtunused () map1
  o3)

(declare-const status1 Bool)

(declare-const q1 map3)

;; "q'unused"
(define-fun qqtunused1 () map__ref1
  (map__refqtmk1 q1))

;; "H"
(assert (dynamic_invariant1 q1 true true true true))

;; "H"
(assert true)

;; "H"
(assert true)

;; "bool__content'result'unused"
(define-fun bool__contentqtresultqtunused2 () Bool
  status1)

(declare-const spark__branch1 Bool)

;; "spark__branch'unused"
(define-fun spark__branchqtunused1 () bool__ref
  (bool__refqtmk spark__branch1))

;; "H"
(assert (= spark__branch1 (ite (= status1 true) false true)))

;; "bool__content'result'unused"
(define-fun bool__contentqtresultqtunused3 () Bool
  spark__branch1)

;; "H"
(assert (not (= spark__branch1 true)))

(declare-const o4 Int)

;; "Ensures"
(assert (= (to_rep1 m__last) o4))

;; "to_rep'result'unused"
(define-fun to_repqtresultqtunused () Int
  o4)

(declare-const o5 Int)

;; "Ensures"
(assert (= (to_rep1 m__first) o5))

;; "to_rep'result'unused"
(define-fun to_repqtresultqtunused1 () Int
  o5)

;; "map__content'result'unused"
(define-fun map__contentqtresultqtunused1 () map1
  m)

;; "temp___1779"
(define-fun temp___1779 () us_t
  (of_array m o5 o4))

;; "of_array'result'unused"
(define-fun of_arrayqtresultqtunused () us_t
  temp___1779)

;; "H"
(assert (<= (first sm) (last sm)))

;; Goal "def'vc"
;; File "sparknacl-sign.ads", line 54, characters 0-0
(assert
  (not (= (- (last sm) (first sm)) (- o4 o5))))

(check-sat)
